computational_data/real_data/solutions/wdbc_trial_004_lex.sol
Optimal - objective value 8.34513200
      0 r_0                         0                0.973451
      1 r_1                         0                0.964602
      2 r_2                         1                0.964602
      3 r_3                         0                0.964602
      4 r_4                         0                0.964602
      5 r_5                         0                0.964602
      6 r_6                         0                0.955752
      7 r_7                         0                0.955752
      8 r_8                         0                0.938053
      9 r_9                         0                0.920354
     10 r_10                        0                0.920354
     11 r_11                        1                0.920354
     12 r_12                        0                0.920354
     13 r_13                        0                0.911504
     14 r_14                        0                0.911504
     15 r_15                        1                0.911504
     16 b_0                         0                0.973451
     17 b_1                         0                0.964602
     18 b_2                         0                0.964602
     19 b_3                         1                0.964602
     20 b_4                         0                0.964602
     21 b_5                         0                0.964602
     22 b_6                         0                0.955752
     23 b_7                         0                0.955752
     24 b_8                         0                0.938053
     25 b_9                         1                0.920354
     26 b_10                        1                0.920354
     27 b_11                        0                0.920354
     28 b_12                        1                0.920354
     29 b_13                        1                0.911504
     30 b_14                        1                0.911504
     31 b_15                        0                0.911504
