computational_data/real_data/logs/wdbc_trial_004_lex.log
Welcome to the CBC MILP Solver 
Version: 2.10.12 
Build Date: Aug 20 2024 

command line - /opt/homebrew/bin/cbc computational_data/real_data/lp/wdbc_trial_004_lex.lp seconds 10.0 solve solu computational_data/real_data/solutions/wdbc_trial_004_lex.sol (default strategy 1)
 CoinLpIO::readLp(): Maximization problem reformulated as minimization
Coin0009I Switching back to maximization to get correct duals etc
seconds was changed from 1e+100 to 10
Continuous objective value is 8.41888 - 0.00 seconds
Cgl0003I 0 fixed, 0 tightened bounds, 51 strengthened rows, 8 substitutions
Cgl0003I 0 fixed, 0 tightened bounds, 51 strengthened rows, 0 substitutions
Cgl0003I 0 fixed, 0 tightened bounds, 39 strengthened rows, 0 substitutions
Cgl0003I 0 fixed, 0 tightened bounds, 24 strengthened rows, 0 substitutions
Cgl0003I 0 fixed, 0 tightened bounds, 12 strengthened rows, 0 substitutions
Cgl0003I 0 fixed, 0 tightened bounds, 7 strengthened rows, 0 substitutions
Cgl0003I 0 fixed, 0 tightened bounds, 5 strengthened rows, 0 substitutions
Cgl0003I 0 fixed, 0 tightened bounds, 4 strengthened rows, 0 substitutions
Cgl0003I 0 fixed, 0 tightened bounds, 3 strengthened rows, 0 substitutions
Cgl0004I processed model has 40 rows, 18 columns (18 integer (18 of which binary)) and 259 elements
Cbc0038I Initial state - 0 integers unsatisfied sum - 0
Cbc0038I Solution found of 8.34513
Cbc0038I Before mini branch and bound, 18 integers at bound fixed and 0 continuous
Cbc0038I Mini branch and bound did not improve solution (0.00 seconds)
Cbc0038I After 0.00 seconds - Feasibility pump exiting with objective of 8.34513 - took 0.00 seconds
Cbc0012I Integer solution of 8.345132 found by feasibility pump after 0 iterations and 0 nodes (0.00 seconds)
Cbc0001I Search completed - best objective 8.345132, took 0 iterations and 0 nodes (0.00 seconds)
Cbc0035I Maximum depth 0, 0 variables fixed on reduced cost
Cuts at root node changed objective from 8.34513 to 8.34513
Probing was tried 0 times and created 0 cuts of which 0 were active after adding rounds of cuts (0.000 seconds)
Gomory was tried 0 times and created 0 cuts of which 0 were active after adding rounds of cuts (0.000 seconds)
Knapsack was tried 0 times and created 0 cuts of which 0 were active after adding rounds of cuts (0.000 seconds)
Clique was tried 0 times and created 0 cuts of which 0 were active after adding rounds of cuts (0.000 seconds)
MixedIntegerRounding2 was tried 0 times and created 0 cuts of which 0 were active after adding rounds of cuts (0.000 seconds)
FlowCover was tried 0 times and created 0 cuts of which 0 were active after adding rounds of cuts (0.000 seconds)
TwoMirCuts was tried 0 times and created 0 cuts of which 0 were active after adding rounds of cuts (0.000 seconds)
ZeroHalf was tried 0 times and created 0 cuts of which 0 were active after adding rounds of cuts (0.000 seconds)

Result - Optimal solution found

Objective value:                8.34513200
Enumerated nodes:               0
Total iterations:               0
Time (CPU seconds):             0.00
Time (Wallclock seconds):       0.00

Total time (CPU seconds):       0.00   (Wallclock seconds):       0.00

